4 10 18 14 6 15 5 9 19 8 0 11 2 1 17 13 12 7 16 3  
4 10 18 14 6 11 5 9 8 15 17 13 19 12 16 0 2 1 7 3  
4 10 18 14 6 7 8 11 5 9 19 16 15 13 12 17 1 0 2 3  
4 10 18 14 6 11 5 9 8 15 17 13 19 12 16 0 2 1 7 3  
4 10 18 14 6 15 5 9 8 19 0 11 2 1 17 13 12 7 16 3  
4 10 18 14 6 15 5 9 11 19 17 8 16 7 2 13 12 0 1 3  
4 10 18 14 6 11 5 9 8 15 17 13 19 12 7 16 0 1 2 3  
4 10 18 14 6 11 5 9 8 15 17 13 19 12 16 0 2 1 7 3  
4 10 18 14 6 11 5 9 8 15 17 13 19 12 16 0 2 1 7 3  
4 10 18 14 6 11 5 9 8 15 17 19 16 7 2 13 12 0 1 3  
4 10 18 14 6 11 5 9 19 16 17 8 15 7 2 3 13 12 0 1  
4 10 18 14 6 11 5 9 19 8 17 16 15 0 3 13 12 7 2 1  
4 15 18 10 6 14 5 9 8 19 11 16 0 13 12 17 1 7 2 3  
4 15 18 10 14 6 7 8 11 5 9 19 17 12 1 0 2 13 16 3  
4 10 18 14 6 7 11 8 5 9 19 16 15 0 13 12 17 1 2 3  
4 10 18 14 6 11 5 9 8 15 17 16 13 7 3 19 12 0 2 1  
4 15 18 10 14 6 5 9 11 19 8 0 12 2 17 1 7 13 16 3  
4 10 18 14 6 11 15 5 9 19 8 16 0 13 12 17 2 7 3 1  
4 10 18 14 6 7 8 11 5 9 19 15 2 0 1 17 12 13 16 3  
4 10 18 14 6 7 8 11 5 9 19 3 15 17 16 2 13 12 0 1  
4 10 18 14 6 15 5 9 8 19 0 11 2 1 17 13 12 7 16 3  
4 10 18 14 6 11 5 17 8 15 9 13 19 12 0 16 7 2 3 1  
4 10 18 14 15 6 5 9 8 19 11 16 0 13 12 17 1 7 2 3  
4 15 18 10 14 6 5 8 9 19 16 11 17 1 0 13 12 7 2 3  
4 10 18 14 6 11 5 9 19 8 17 16 15 0 3 13 12 7 2 1  
4 10 18 14 6 11 5 9 8 15 17 13 16 1 0 2 19 12 7 3  
4 10 18 14 6 7 8 11 5 9 19 2 13 15 12 17 1 0 16 3  
4 15 18 10 6 14 5 9 8 19 16 11 17 1 0 2 13 12 7 3  
4 10 18 14 15 6 11 5 9 19 2 8 17 12 7 3 1 0 13 16  
4 10 18 14 6 11 5 9 19 8 17 15 16 0 3 13 12 7 2 1  
4 10 18 14 6 7 8 11 5 9 19 16 15 3 12 17 1 0 2 13  
4 15 18 10 14 6 5 8 9 19 2 11 17 1 0 13 12 7 16 3  
4 10 18 14 6 7 8 11 5 9 19 15 2 0 1 17 12 13 16 3  
4 10 18 14 6 11 7 8 5 9 19 15 0 2 13 12 17 16 3 1  
4 10 18 14 6 11 5 9 19 8 17 15 3 13 12 0 1 7 2 16  
4 15 18 10 14 6 7 8 11 5 9 19 17 16 1 0 2 13 12 3  
4 15 18 10 14 6 5 8 9 19 16 11 0 2 17 1 7 13 12 3  
4 10 18 14 6 11 5 9 19 8 17 15 16 3 12 0 1 7 2 13  
4 10 18 14 6 15 5 9 8 11 19 16 0 13 12 17 1 7 2 3  
4 15 18 10 14 6 5 8 9 19 16 0 11 2 17 1 13 12 7 3  
4 10 18 14 6 15 5 9 8 11 17 19 16 7 3 13 12 0 2 1  
4 10 18 14 6 7 8 11 5 9 19 15 0 12 3 16 17 1 2 13  
4 10 18 14 6 11 5 8 17 15 9 19 12 0 3 13 16 7 2 1  
4 10 18 14 6 11 5 17 8 15 9 13 19 16 12 0 2 1 7 3  
4 10 18 15 6 14 5 9 19 8 16 11 0 13 12 17 1 7 2 3  
4 10 18 14 6 7 8 11 5 9 19 2 13 15 12 0 17 1 16 3  
4 10 18 14 6 0 8 11 15 5 9 19 16 3 12 17 1 7 2 13  
4 10 18 14 6 7 11 8 5 9 19 15 2 17 1 0 13 16 12 3  
4 15 18 10 14 6 5 9 19 8 16 0 11 13 12 17 1 7 2 3  
4 10 18 14 6 7 8 11 5 9 19 3 15 17 12 0 13 2 16 1  
4 10 18 14 6 17 8 11 15 5 9 19 16 0 13 12 7 1 2 3  
4 10 18 14 6 7 8 11 5 9 19 15 2 0 12 17 1 13 16 3  
4 10 18 14 6 11 7 8 5 9 19 15 2 0 1 17 12 13 16 3  
